n=588;
k_min=13;
k_max=13;
M=[| 79, 72, 74, 68, 74, 70, 79, 81, 83, 80, 73, 81, 80
 | 80, 72, 74, 68, 74, 70, 78, 81, 83, 80, 73, 81, 80
 | 80, 72, 74, 69, 74, 70, 78, 80, 82, 80, 73, 81, 81
 | 80, 72, 74, 69, 74, 70, 78, 80, 82, 80, 73, 81, 81
 | 80, 72, 74, 69, 74, 70, 78, 80, 83, 79, 73, 81, 81
 | 80, 72, 74, 69, 74, 70, 78, 80, 83, 79, 73, 81, 82
 | 81, 72, 73, 69, 74, 70, 77, 80, 82, 79, 73, 81, 82
 | 81, 72, 73, 69, 74, 70, 77, 79, 82, 79, 73, 81, 82
 | 82, 72, 73, 68, 74, 70, 77, 79, 82, 79, 73, 81, 83
 | 82, 72, 74, 69, 74, 70, 77, 79, 81, 79, 73, 81, 82
 | 83, 73, 74, 69, 74, 70, 77, 79, 80, 79, 73, 81, 82
 | 82, 73, 74, 69, 74, 71, 77, 79, 80, 79, 73, 81, 81
 | 83, 73, 74, 69, 74, 71, 77, 79, 79, 79, 73, 81, 81
 | 82, 73, 74, 69, 74, 71, 77, 79, 79, 79, 73, 81, 80
 | 82, 74, 74, 69, 74, 71, 77, 79, 79, 79, 74, 80, 80
 | 83, 73, 75, 69, 74, 71, 78, 79, 78, 80, 74, 80, 79
 | 82, 74, 75, 69, 74, 71, 78, 79, 78, 80, 74, 80, 79
 | 82, 74, 75, 69, 75, 71, 78, 80, 78, 80, 74, 80, 79
 | 79, 72, 74, 68, 75, 70, 79, 81, 82, 80, 73, 81, 80
 | 79, 72, 74, 68, 74, 70, 78, 81, 83, 80, 73, 81, 80
 | 79, 72, 74, 69, 74, 70, 78, 81, 82, 80, 73, 81, 80
 | 80, 72, 74, 69, 74, 70, 78, 80, 82, 80, 73, 81, 81
 | 80, 72, 74, 69, 74, 70, 78, 80, 82, 80, 73, 81, 80
 | 80, 72, 74, 69, 74, 70, 78, 80, 82, 79, 73, 81, 81
 | 80, 72, 74, 69, 74, 70, 78, 80, 83, 79, 73, 81, 81
 | 81, 72, 74, 69, 74, 70, 78, 80, 83, 79, 73, 81, 82
 | 81, 72, 74, 69, 74, 70, 77, 80, 82, 79, 73, 81, 82
 | 81, 72, 74, 69, 74, 70, 77, 79, 82, 79, 73, 81, 82
 | 81, 72, 73, 69, 74, 70, 77, 79, 82, 79, 73, 81, 83
 | 82, 72, 74, 69, 74, 70, 77, 79, 81, 79, 73, 81, 83
 | 82, 72, 74, 69, 74, 70, 77, 79, 81, 79, 73, 81, 82
 | 82, 73, 74, 69, 74, 71, 77, 79, 81, 79, 73, 81, 82
 | 82, 73, 74, 69, 74, 71, 77, 79, 81, 79, 73, 81, 82
 | 83, 73, 74, 69, 74, 71, 77, 79, 80, 79, 73, 81, 81
 | 82, 73, 74, 69, 74, 71, 77, 79, 80, 79, 73, 81, 81
 | 83, 73, 74, 69, 74, 71, 77, 79, 79, 79, 73, 80, 81
 | 82, 73, 74, 69, 74, 71, 77, 79, 80, 79, 73, 81, 81
 | 83, 74, 74, 69, 74, 71, 77, 79, 79, 79, 73, 80, 80
 | 82, 74, 75, 70, 74, 72, 77, 79, 79, 79, 74, 80, 80
 | 82, 74, 75, 70, 74, 71, 77, 79, 78, 79, 74, 80, 80
 | 82, 74, 75, 69, 74, 71, 78, 79, 78, 79, 74, 80, 79
 | 82, 74, 75, 69, 75, 72, 78, 79, 78, 80, 74, 80, 79
 | 82, 74, 75, 69, 75, 71, 78, 79, 78, 80, 74, 80, 79
 | 79, 72, 74, 69, 75, 70, 79, 81, 82, 80, 74, 80, 80
 | 79, 72, 74, 69, 74, 70, 78, 80, 82, 80, 73, 81, 80
 | 79, 72, 74, 69, 74, 70, 78, 80, 82, 80, 73, 81, 80
 | 80, 72, 74, 69, 74, 70, 78, 80, 82, 80, 73, 81, 81
 | 80, 72, 74, 69, 74, 70, 78, 80, 82, 79, 73, 81, 81
 | 80, 72, 74, 69, 74, 70, 78, 80, 82, 79, 73, 81, 81
 | 80, 72, 74, 69, 74, 70, 78, 80, 82, 80, 73, 81, 81
 | 80, 72, 74, 69, 74, 70, 78, 80, 82, 79, 73, 81, 81
 | 80, 72, 74, 69, 74, 70, 78, 80, 82, 79, 73, 81, 81
 | 80, 72, 74, 69, 74, 70, 78, 80, 82, 79, 73, 81, 81
 | 81, 72, 74, 69, 74, 70, 77, 79, 82, 79, 73, 81, 82
 | 81, 72, 74, 69, 74, 70, 77, 79, 82, 79, 73, 81, 82
 | 81, 72, 74, 69, 74, 70, 77, 79, 82, 79, 73, 81, 82
 | 81, 72, 74, 69, 74, 70, 77, 79, 82, 79, 73, 81, 82
 | 81, 72, 74, 69, 74, 71, 77, 79, 82, 79, 73, 81, 82
 | 82, 72, 74, 69, 74, 71, 77, 79, 81, 79, 73, 81, 82
 | 82, 73, 74, 69, 74, 71, 77, 79, 81, 79, 73, 81, 82
 | 82, 73, 74, 69, 74, 71, 77, 79, 81, 79, 73, 81, 82
 | 82, 73, 74, 70, 74, 71, 77, 79, 80, 79, 73, 81, 81
 | 82, 73, 74, 70, 74, 71, 77, 79, 80, 79, 73, 80, 81
 | 82, 73, 74, 69, 74, 71, 77, 79, 80, 79, 73, 81, 81
 | 82, 73, 74, 69, 74, 71, 77, 79, 80, 79, 73, 81, 82
 | 82, 73, 74, 69, 74, 71, 77, 79, 81, 79, 73, 81, 82
 | 82, 73, 74, 69, 74, 71, 77, 79, 80, 79, 73, 81, 81
 | 82, 73, 74, 69, 74, 71, 77, 79, 80, 79, 73, 81, 81
 | 82, 73, 74, 70, 74, 71, 77, 79, 80, 79, 73, 80, 81
 | 83, 74, 74, 70, 74, 71, 77, 79, 79, 79, 73, 80, 80
 | 83, 74, 74, 70, 74, 71, 77, 79, 79, 79, 74, 80, 80
 | 82, 74, 75, 70, 74, 72, 77, 79, 79, 79, 74, 80, 80
 | 82, 74, 75, 70, 74, 72, 77, 79, 78, 79, 74, 80, 80
 | 82, 74, 75, 70, 74, 72, 77, 79, 78, 79, 74, 80, 79
 | 82, 74, 75, 70, 75, 72, 78, 79, 78, 79, 74, 80, 79
 | 82, 74, 75, 70, 75, 72, 78, 79, 78, 80, 74, 80, 78
 | 82, 74, 75, 69, 75, 71, 78, 79, 78, 80, 74, 80, 78
 | 82, 73, 74, 69, 74, 71, 77, 79, 81, 79, 73, 81, 82
 | 82, 73, 74, 69, 74, 71, 77, 79, 81, 79, 73, 81, 82
 | 81, 73, 74, 69, 74, 71, 77, 79, 81, 79, 73, 81, 82
 | 81, 73, 74, 69, 74, 71, 77, 79, 82, 79, 73, 81, 82
 | 81, 72, 74, 69, 74, 71, 77, 79, 82, 79, 73, 81, 82
 | 81, 72, 74, 69, 74, 71, 77, 79, 82, 79, 73, 81, 82
 | 80, 72, 74, 69, 74, 71, 77, 79, 82, 79, 73, 81, 81
 | 83, 73, 74, 69, 74, 71, 77, 79, 80, 79, 73, 81, 81
 | 83, 73, 74, 69, 74, 71, 77, 79, 79, 79, 73, 81, 80
 | 82, 74, 74, 69, 74, 71, 77, 79, 79, 79, 74, 80, 80
 | 80, 72, 74, 69, 74, 71, 78, 79, 82, 79, 73, 81, 81
 | 80, 72, 74, 69, 74, 71, 78, 80, 82, 79, 73, 81, 81
 | 80, 72, 74, 69, 74, 70, 78, 80, 82, 79, 73, 81, 81
 | 80, 72, 74, 69, 74, 70, 78, 80, 82, 79, 73, 81, 81
 | 80, 72, 74, 69, 74, 70, 78, 80, 82, 79, 74, 81, 81
 | 80, 72, 74, 69, 74, 70, 78, 80, 82, 79, 74, 81, 81
 | 79, 72, 74, 69, 74, 70, 78, 80, 82, 79, 74, 80, 80
 | 79, 72, 74, 69, 74, 70, 78, 80, 82, 80, 74, 80, 80
 | 79, 72, 74, 69, 75, 70, 78, 80, 82, 80, 74, 80, 80
 | 79, 72, 74, 69, 75, 70, 79, 81, 82, 80, 74, 80, 80
 | 79, 72, 74, 69, 75, 70, 79, 80, 82, 80, 74, 80, 80
 | 82, 73, 74, 69, 74, 71, 77, 79, 80, 79, 73, 81, 81
 | 82, 73, 74, 69, 74, 71, 77, 79, 80, 79, 73, 81, 81
 | 82, 73, 74, 69, 74, 71, 77, 79, 79, 79, 73, 81, 80
 | 83, 73, 74, 69, 74, 71, 77, 79, 79, 79, 73, 81, 81
 | 83, 73, 74, 69, 74, 70, 77, 79, 81, 79, 73, 81, 82
 | 82, 73, 74, 69, 74, 71, 77, 79, 80, 79, 73, 81, 81
 | 83, 73, 74, 69, 74, 71, 78, 79, 79, 80, 74, 81, 80
 | 83, 73, 75, 69, 74, 71, 78, 79, 78, 80, 74, 80, 79
 | 81, 74, 75, 70, 75, 72, 78, 79, 78, 80, 74, 79, 78
 | 82, 74, 75, 70, 75, 72, 78, 79, 78, 80, 74, 80, 78
 | 80, 72, 74, 68, 74, 69, 78, 81, 81, 81, 73, 82, 81
 | 80, 72, 74, 68, 74, 69, 78, 81, 81, 80, 73, 82, 81
 | 81, 72, 74, 68, 74, 70, 78, 81, 81, 80, 73, 82, 81
 | 81, 72, 73, 68, 74, 70, 78, 80, 81, 80, 73, 82, 81
 | 81, 72, 73, 68, 74, 70, 78, 80, 81, 80, 73, 82, 82
 | 81, 72, 74, 68, 74, 70, 78, 80, 81, 80, 73, 82, 82
 | 81, 72, 74, 68, 74, 70, 78, 80, 80, 80, 73, 82, 81
 | 81, 72, 74, 68, 74, 70, 78, 81, 80, 81, 73, 82, 80
 | 80, 72, 74, 68, 74, 69, 79, 81, 81, 81, 73, 82, 80
 | 80, 72, 74, 68, 74, 69, 79, 81, 81, 81, 73, 82, 80
 | 81, 72, 74, 68, 74, 69, 78, 81, 81, 80, 73, 83, 81
 | 80, 72, 74, 68, 74, 69, 78, 81, 81, 80, 73, 82, 81
 | 81, 72, 74, 68, 74, 70, 78, 80, 81, 80, 73, 83, 81
 | 81, 72, 74, 68, 74, 70, 78, 81, 80, 80, 73, 83, 81
 | 81, 72, 74, 68, 74, 70, 78, 81, 81, 80, 73, 83, 81
 | 81, 72, 74, 68, 74, 70, 78, 81, 80, 81, 73, 83, 81
 | 81, 72, 74, 68, 74, 70, 78, 81, 81, 80, 73, 82, 81
 | 81, 72, 74, 68, 74, 70, 78, 80, 81, 80, 73, 82, 81
 | 81, 72, 74, 68, 74, 70, 78, 80, 81, 80, 73, 82, 81
 | 81, 72, 74, 68, 74, 70, 78, 80, 80, 80, 73, 82, 81
 | 81, 72, 74, 68, 74, 70, 78, 80, 80, 80, 73, 82, 81
 | 81, 72, 73, 68, 74, 70, 78, 80, 81, 80, 73, 82, 81
 | 82, 72, 74, 68, 74, 70, 78, 80, 81, 80, 73, 82, 81
 | 82, 72, 74, 68, 74, 70, 78, 80, 80, 80, 73, 82, 81
 | 79, 72, 74, 68, 74, 69, 79, 82, 81, 81, 73, 81, 79
 | 80, 72, 74, 67, 74, 69, 79, 82, 81, 81, 73, 81, 80
 | 80, 72, 74, 67, 74, 69, 79, 81, 80, 81, 73, 82, 80
 | 80, 72, 74, 68, 74, 70, 79, 81, 80, 81, 73, 81, 79
 | 80, 72, 75, 68, 75, 70, 80, 81, 79, 82, 74, 80, 78
 | 79, 72, 75, 68, 75, 70, 80, 82, 79, 83, 74, 80, 78
 | 79, 72, 75, 68, 75, 69, 80, 82, 80, 82, 74, 80, 78
 | 79, 72, 74, 68, 75, 69, 80, 83, 80, 82, 74, 80, 78
 | 79, 72, 74, 68, 74, 69, 79, 82, 81, 81, 73, 81, 79
 | 79, 72, 74, 67, 74, 69, 79, 82, 81, 81, 73, 81, 79
 | 80, 72, 74, 67, 74, 69, 79, 82, 80, 82, 73, 81, 79
 | 80, 72, 74, 67, 74, 69, 79, 82, 80, 82, 73, 81, 79
 | 80, 72, 74, 67, 75, 69, 79, 82, 80, 82, 73, 81, 79
 | 79, 72, 74, 67, 75, 69, 80, 82, 80, 82, 73, 81, 79
 | 79, 72, 74, 67, 75, 69, 80, 82, 80, 82, 74, 80, 78
 | 79, 72, 74, 67, 75, 69, 80, 82, 80, 82, 74, 81, 78
 | 79, 72, 74, 68, 75, 69, 80, 82, 80, 82, 74, 80, 78
 | 79, 72, 74, 68, 75, 69, 80, 82, 80, 82, 74, 80, 78
 | 79, 72, 75, 68, 75, 70, 80, 82, 79, 83, 74, 80, 78
 | 80, 72, 74, 68, 75, 70, 79, 81, 79, 82, 74, 81, 79
 | 80, 72, 74, 67, 74, 69, 79, 82, 80, 82, 73, 81, 79
 | 79, 72, 74, 67, 75, 69, 80, 83, 80, 82, 74, 80, 78
 | 79, 72, 74, 68, 75, 69, 80, 83, 81, 82, 74, 81, 79
 | 80, 72, 74, 68, 75, 70, 80, 81, 79, 82, 74, 81, 78
 | 80, 72, 74, 68, 74, 70, 79, 81, 80, 82, 73, 81, 79
 | 80, 72, 74, 68, 74, 69, 79, 81, 80, 81, 73, 81, 79
 | 80, 72, 74, 67, 74, 69, 79, 82, 81, 81, 73, 82, 80
 | 78, 72, 75, 68, 76, 70, 81, 82, 79, 82, 74, 79, 77
 | 78, 73, 75, 68, 76, 70, 81, 81, 79, 82, 74, 79, 77
 | 78, 73, 75, 68, 76, 70, 81, 81, 78, 82, 75, 79, 77
 | 78, 72, 75, 68, 76, 70, 81, 82, 79, 82, 74, 79, 77
 | 78, 72, 75, 68, 76, 70, 81, 81, 79, 81, 75, 79, 77
 | 77, 73, 76, 69, 77, 71, 82, 81, 79, 81, 75, 78, 76
 | 77, 73, 76, 70, 77, 71, 82, 80, 78, 80, 76, 78, 76
 | 77, 73, 76, 70, 77, 71, 83, 80, 78, 80, 76, 77, 75
 | 77, 74, 77, 70, 77, 71, 83, 80, 77, 80, 76, 77, 75
 | 77, 74, 77, 70, 77, 71, 82, 80, 77, 80, 76, 77, 75
 | 78, 73, 76, 69, 77, 71, 81, 80, 78, 81, 75, 78, 76
 | 78, 73, 76, 68, 76, 70, 81, 81, 78, 82, 75, 79, 76
 | 78, 73, 75, 68, 76, 70, 82, 81, 78, 82, 75, 79, 76
 | 78, 73, 76, 69, 76, 70, 82, 81, 79, 81, 75, 78, 76
 | 77, 73, 76, 69, 77, 71, 82, 81, 78, 81, 75, 78, 76
 | 77, 73, 76, 69, 77, 71, 82, 80, 78, 81, 76, 78, 76
 | 77, 73, 76, 69, 77, 71, 82, 80, 78, 81, 76, 78, 76
 | 78, 73, 76, 69, 76, 70, 82, 81, 78, 81, 75, 78, 76
 | 78, 73, 76, 69, 76, 70, 82, 81, 78, 81, 75, 79, 76
 | 78, 72, 75, 68, 76, 70, 81, 81, 79, 82, 75, 79, 77
 | 77, 73, 76, 69, 76, 70, 82, 81, 79, 81, 75, 78, 76
 | 77, 73, 76, 69, 77, 71, 82, 81, 78, 81, 75, 78, 76
 | 77, 73, 76, 69, 77, 71, 82, 81, 78, 81, 75, 78, 76
 | 78, 73, 75, 68, 76, 70, 81, 81, 79, 82, 75, 79, 77
 | 78, 73, 76, 68, 76, 70, 81, 81, 78, 82, 75, 79, 76
 | 78, 73, 76, 69, 76, 71, 81, 80, 78, 81, 75, 78, 76
 | 77, 73, 76, 69, 77, 71, 82, 80, 78, 81, 76, 78, 76
 | 78, 73, 75, 68, 76, 70, 81, 81, 79, 82, 75, 79, 77
 | 78, 72, 75, 68, 76, 70, 81, 82, 79, 82, 74, 79, 77
 | 78, 72, 75, 68, 76, 70, 81, 82, 79, 82, 74, 79, 77
 | 78, 72, 75, 68, 76, 70, 81, 81, 79, 81, 75, 79, 77
 | 77, 73, 75, 69, 76, 70, 82, 81, 79, 81, 75, 79, 77
 | 78, 73, 75, 68, 76, 70, 81, 81, 79, 81, 75, 79, 77
 | 77, 73, 75, 69, 76, 70, 81, 81, 79, 81, 75, 78, 77
 | 78, 72, 75, 69, 76, 70, 81, 81, 79, 81, 75, 79, 77
 | 78, 72, 75, 68, 76, 70, 81, 81, 79, 82, 75, 79, 77
 | 78, 73, 75, 68, 76, 70, 81, 81, 78, 82, 75, 79, 77
 | 78, 73, 75, 69, 76, 70, 81, 81, 79, 81, 75, 79, 77
 | 78, 72, 75, 68, 76, 70, 81, 82, 79, 82, 74, 79, 77
 | 78, 72, 75, 68, 76, 70, 81, 82, 79, 82, 74, 79, 77
 | 78, 73, 76, 69, 76, 70, 81, 81, 78, 82, 75, 79, 76
 | 77, 74, 76, 69, 77, 71, 82, 80, 77, 81, 76, 78, 76
 | 78, 73, 76, 69, 77, 71, 82, 80, 78, 81, 75, 78, 76
 | 77, 73, 76, 69, 77, 71, 82, 80, 77, 81, 76, 78, 75
 | 77, 73, 76, 69, 77, 71, 83, 80, 78, 80, 76, 78, 75
 | 77, 73, 76, 70, 77, 71, 82, 80, 78, 80, 76, 78, 76
 | 77, 73, 76, 69, 77, 71, 82, 80, 78, 80, 76, 78, 76
 | 77, 73, 76, 69, 77, 71, 82, 81, 79, 81, 75, 78, 76
 | 77, 73, 76, 70, 77, 71, 82, 80, 78, 80, 76, 77, 75
 | 77, 73, 76, 69, 77, 71, 82, 80, 78, 81, 76, 78, 76
 | 77, 73, 76, 70, 77, 71, 83, 80, 77, 80, 76, 77, 75
 | 77, 74, 77, 70, 77, 71, 83, 80, 77, 80, 76, 77, 75
 | 77, 74, 77, 70, 77, 71, 82, 80, 77, 80, 76, 77, 75
 | 77, 74, 76, 69, 77, 71, 82, 80, 77, 81, 76, 78, 75
 | 78, 73, 75, 68, 76, 70, 81, 81, 79, 82, 75, 79, 77
 | 78, 73, 75, 68, 76, 70, 81, 81, 78, 82, 75, 79, 77
 | 78, 73, 76, 69, 76, 70, 82, 81, 78, 81, 75, 78, 76
 | 78, 73, 76, 69, 77, 71, 82, 81, 78, 81, 75, 78, 76
 | 78, 73, 76, 69, 77, 71, 82, 80, 77, 81, 76, 78, 76
 | 77, 74, 76, 69, 77, 71, 82, 80, 77, 81, 76, 78, 75
 | 77, 73, 76, 69, 77, 71, 83, 80, 77, 80, 76, 77, 75
 | 77, 73, 76, 69, 77, 71, 82, 80, 78, 81, 76, 78, 76
 | 77, 73, 76, 69, 77, 71, 82, 80, 78, 80, 76, 78, 76
 | 78, 73, 75, 68, 76, 70, 81, 81, 79, 81, 75, 79, 77
 | 78, 73, 75, 68, 76, 70, 81, 81, 78, 82, 75, 79, 76
 | 78, 73, 76, 69, 77, 71, 82, 81, 78, 81, 75, 78, 76
 | 77, 73, 76, 69, 77, 71, 82, 81, 78, 81, 75, 78, 76
 | 77, 73, 76, 69, 77, 71, 82, 80, 78, 81, 75, 78, 76
 | 77, 73, 76, 69, 77, 71, 82, 81, 78, 81, 75, 78, 76
 | 77, 73, 76, 69, 76, 70, 82, 81, 79, 81, 75, 78, 76
 | 78, 73, 75, 68, 76, 70, 81, 81, 79, 82, 75, 79, 77
 | 78, 73, 75, 68, 76, 70, 81, 81, 79, 82, 75, 79, 77
 | 77, 73, 75, 69, 76, 70, 82, 81, 79, 81, 75, 78, 77
 | 73, 78, 81, 76, 83, 76, 78, 75, 73, 76, 81, 73, 71
 | 73, 78, 81, 75, 83, 76, 78, 75, 73, 76, 81, 73, 71
 | 74, 78, 81, 75, 83, 76, 78, 75, 73, 76, 81, 73, 71
 | 74, 78, 81, 75, 82, 76, 78, 75, 73, 76, 81, 73, 71
 | 74, 78, 82, 75, 82, 76, 78, 75, 73, 76, 81, 73, 71
 | 74, 78, 82, 75, 81, 76, 78, 75, 73, 76, 81, 73, 71
 | 73, 78, 81, 75, 83, 76, 78, 75, 73, 76, 81, 73, 71
 | 74, 78, 81, 75, 83, 76, 78, 75, 73, 76, 81, 73, 71
 | 74, 78, 81, 75, 82, 76, 78, 75, 73, 76, 81, 73, 71
 | 74, 78, 81, 75, 82, 76, 78, 75, 73, 76, 81, 73, 71
 | 74, 78, 81, 75, 82, 76, 78, 75, 73, 76, 81, 73, 71
 | 74, 78, 81, 75, 82, 76, 78, 75, 73, 76, 81, 73, 71
 | 74, 78, 81, 75, 81, 76, 78, 75, 73, 76, 81, 73, 71
 | 74, 78, 82, 75, 82, 77, 78, 75, 72, 76, 81, 73, 71
 | 74, 78, 82, 75, 82, 77, 78, 75, 72, 76, 82, 73, 71
 | 74, 78, 82, 76, 82, 77, 78, 75, 72, 76, 82, 73, 71
 | 73, 78, 81, 76, 83, 76, 78, 75, 73, 76, 82, 73, 71
 | 73, 78, 82, 76, 83, 76, 78, 75, 73, 76, 82, 73, 71
 | 74, 77, 81, 75, 83, 76, 78, 75, 73, 76, 81, 73, 71
 | 74, 78, 81, 75, 82, 76, 78, 75, 73, 76, 81, 73, 71
 | 73, 78, 81, 76, 82, 77, 78, 75, 72, 76, 82, 73, 71
 | 74, 78, 81, 75, 82, 76, 78, 75, 73, 76, 81, 73, 71
 | 74, 78, 81, 75, 82, 76, 78, 75, 73, 76, 82, 73, 71
 | 74, 78, 82, 75, 81, 76, 78, 75, 73, 76, 81, 73, 71
 | 74, 79, 82, 75, 81, 77, 78, 75, 72, 76, 81, 73, 71
 | 74, 78, 82, 75, 81, 76, 78, 75, 73, 76, 81, 73, 71
 | 73, 77, 81, 76, 82, 76, 78, 75, 73, 76, 81, 73, 71
 | 73, 78, 82, 76, 82, 76, 78, 75, 73, 76, 81, 73, 71
 | 73, 77, 81, 76, 82, 76, 78, 75, 73, 76, 81, 73, 71
 | 73, 78, 82, 76, 82, 76, 78, 75, 73, 76, 82, 73, 71
 | 73, 78, 82, 76, 82, 76, 78, 75, 73, 76, 81, 73, 71
 | 74, 77, 81, 75, 82, 76, 78, 75, 73, 76, 81, 73, 71
 | 73, 78, 82, 78, 81, 77, 77, 75, 73, 75, 81, 73, 71
 | 73, 78, 82, 78, 81, 77, 77, 75, 73, 75, 81, 73, 71
 | 73, 78, 82, 78, 81, 77, 77, 75, 73, 75, 81, 73, 71
 | 73, 78, 82, 78, 81, 77, 77, 75, 73, 75, 81, 73, 71
 | 73, 78, 83, 77, 81, 77, 77, 74, 72, 75, 82, 73, 71
 | 73, 78, 82, 77, 82, 77, 77, 74, 72, 75, 82, 72, 71
 | 73, 79, 82, 77, 82, 77, 77, 74, 72, 75, 82, 72, 71
 | 73, 79, 82, 77, 82, 78, 77, 74, 72, 75, 83, 72, 71
 | 73, 79, 82, 77, 81, 78, 77, 74, 72, 75, 83, 72, 70
 | 73, 79, 82, 77, 81, 78, 77, 74, 72, 75, 82, 72, 71
 | 74, 80, 83, 76, 81, 78, 77, 74, 72, 75, 81, 73, 71
 | 74, 80, 82, 76, 80, 78, 77, 74, 72, 75, 81, 73, 71
 | 74, 80, 82, 76, 80, 78, 77, 75, 72, 75, 80, 73, 71
 | 74, 80, 82, 76, 81, 78, 77, 74, 72, 75, 81, 73, 71
 | 73, 79, 83, 76, 81, 78, 77, 74, 72, 75, 82, 73, 71
 | 73, 79, 82, 77, 82, 78, 77, 74, 72, 75, 83, 72, 71
 | 73, 79, 82, 77, 82, 77, 77, 74, 72, 75, 82, 72, 71
 | 73, 78, 82, 77, 82, 77, 77, 74, 72, 75, 82, 73, 71
 | 73, 78, 83, 77, 81, 77, 77, 75, 72, 75, 81, 73, 71
 | 73, 78, 82, 77, 81, 77, 77, 75, 73, 75, 81, 73, 71
 | 73, 78, 82, 78, 81, 77, 77, 75, 73, 75, 81, 73, 71
 | 73, 78, 82, 78, 81, 77, 77, 75, 73, 75, 81, 73, 71
 | 73, 78, 82, 78, 81, 77, 77, 75, 73, 75, 81, 73, 71
 | 73, 78, 82, 78, 81, 78, 77, 74, 73, 75, 81, 73, 71
 | 73, 78, 82, 78, 81, 78, 77, 74, 73, 75, 81, 73, 71
 | 73, 78, 82, 78, 81, 78, 77, 74, 72, 75, 81, 73, 71
 | 73, 78, 82, 78, 81, 78, 77, 74, 72, 75, 82, 73, 71
 | 73, 79, 82, 78, 81, 78, 77, 74, 72, 75, 82, 72, 71
 | 73, 79, 82, 78, 81, 78, 77, 74, 72, 75, 82, 72, 71
 | 73, 79, 82, 77, 81, 78, 77, 74, 72, 75, 82, 72, 71
 | 73, 79, 82, 77, 81, 78, 77, 74, 72, 75, 83, 72, 70
 | 73, 79, 82, 77, 81, 78, 77, 74, 72, 75, 82, 72, 70
 | 73, 79, 82, 77, 81, 78, 77, 74, 72, 75, 82, 72, 70
 | 73, 80, 82, 77, 81, 78, 77, 74, 72, 75, 82, 72, 71
 | 74, 80, 82, 77, 81, 78, 77, 74, 72, 75, 82, 72, 71
 | 74, 80, 83, 77, 81, 78, 77, 74, 72, 75, 81, 73, 71
 | 74, 80, 82, 77, 80, 78, 77, 74, 72, 75, 81, 73, 71
 | 74, 80, 82, 77, 80, 78, 77, 74, 72, 75, 81, 73, 71
 | 74, 80, 82, 76, 80, 78, 77, 74, 72, 75, 80, 73, 71
 | 74, 80, 82, 76, 80, 78, 77, 74, 72, 75, 81, 73, 71
 | 73, 79, 82, 76, 81, 78, 77, 74, 72, 75, 82, 72, 71
 | 73, 80, 82, 77, 81, 78, 77, 74, 72, 75, 82, 72, 70
 | 73, 79, 82, 77, 82, 77, 77, 74, 72, 75, 82, 72, 71
 | 73, 79, 82, 77, 81, 78, 77, 74, 72, 75, 82, 72, 70
 | 73, 80, 82, 77, 81, 78, 77, 74, 72, 75, 82, 72, 70
 | 73, 78, 83, 77, 81, 77, 77, 75, 73, 75, 81, 73, 71
 | 73, 78, 83, 78, 81, 77, 77, 74, 72, 75, 82, 73, 71
 | 73, 78, 83, 77, 81, 77, 77, 74, 72, 75, 82, 73, 71
 | 73, 79, 82, 78, 81, 78, 77, 74, 72, 75, 82, 72, 71
 | 73, 79, 82, 79, 81, 78, 76, 74, 72, 75, 81, 72, 71
 | 73, 79, 82, 79, 81, 79, 76, 74, 72, 75, 81, 72, 71
 | 73, 79, 82, 79, 81, 79, 76, 74, 72, 75, 82, 72, 70
 | 73, 80, 82, 79, 81, 79, 76, 74, 72, 75, 82, 72, 70
 | 73, 80, 82, 79, 80, 79, 76, 74, 72, 74, 82, 72, 70
 | 73, 80, 82, 78, 80, 79, 76, 74, 72, 74, 82, 72, 70
 | 73, 80, 83, 78, 80, 79, 76, 74, 71, 74, 82, 72, 70
 | 73, 80, 82, 79, 80, 79, 76, 74, 72, 74, 82, 72, 70
 | 73, 79, 82, 79, 80, 79, 76, 74, 72, 75, 81, 72, 71
 | 73, 79, 83, 79, 80, 79, 76, 74, 72, 74, 81, 72, 71
 | 73, 80, 82, 79, 80, 79, 76, 74, 72, 74, 81, 72, 70
 | 73, 80, 82, 79, 80, 79, 76, 74, 72, 74, 81, 72, 70
 | 73, 80, 82, 79, 80, 79, 76, 74, 72, 74, 82, 72, 70
 | 73, 80, 82, 79, 80, 79, 76, 74, 72, 74, 81, 72, 70
 | 73, 81, 82, 79, 80, 80, 76, 74, 71, 74, 81, 72, 70
 | 73, 80, 82, 79, 80, 79, 76, 74, 71, 74, 81, 72, 70
 | 73, 79, 83, 79, 80, 79, 76, 74, 72, 74, 81, 72, 71
 | 73, 79, 83, 79, 80, 79, 76, 74, 72, 75, 81, 72, 71
 | 73, 79, 83, 79, 80, 79, 76, 74, 72, 74, 81, 72, 71
 | 73, 79, 82, 79, 81, 79, 76, 74, 72, 75, 82, 72, 71
 | 73, 80, 83, 79, 80, 79, 76, 74, 72, 74, 81, 72, 70
 | 73, 81, 83, 79, 80, 80, 76, 74, 71, 74, 81, 72, 70
 | 73, 80, 83, 78, 80, 79, 76, 74, 71, 74, 82, 72, 70
 | 73, 81, 83, 78, 80, 80, 76, 74, 71, 74, 81, 72, 70
 | 73, 81, 83, 78, 80, 79, 76, 74, 71, 74, 81, 72, 70
 | 73, 81, 82, 79, 80, 80, 76, 74, 71, 74, 81, 72, 70
 | 73, 81, 82, 78, 80, 80, 76, 74, 71, 74, 81, 72, 70
 | 73, 81, 82, 78, 80, 79, 76, 74, 71, 75, 81, 72, 70
 | 73, 81, 82, 78, 80, 80, 76, 74, 71, 75, 81, 72, 70
 | 73, 80, 82, 79, 81, 79, 76, 74, 72, 75, 82, 72, 70
 | 73, 80, 82, 79, 80, 79, 76, 74, 72, 74, 81, 72, 70
 | 73, 80, 82, 79, 80, 79, 76, 74, 72, 74, 81, 72, 70
 | 73, 80, 82, 79, 81, 79, 76, 74, 72, 75, 82, 72, 70
 | 73, 81, 81, 81, 79, 81, 75, 74, 72, 74, 80, 72, 71
 | 73, 81, 81, 81, 79, 81, 75, 74, 72, 74, 80, 72, 71
 | 73, 81, 81, 81, 79, 81, 75, 74, 72, 74, 80, 72, 71
 | 73, 80, 80, 82, 79, 81, 75, 74, 72, 74, 79, 72, 71
 | 73, 80, 80, 82, 78, 81, 75, 74, 72, 74, 79, 73, 71
 | 73, 80, 80, 82, 78, 81, 75, 74, 72, 74, 79, 73, 72
 | 74, 80, 80, 82, 78, 81, 75, 74, 72, 74, 79, 73, 72
 | 73, 81, 81, 81, 79, 81, 75, 73, 72, 74, 80, 72, 71
 | 73, 81, 81, 81, 79, 81, 75, 74, 72, 74, 80, 72, 71
 | 73, 81, 81, 82, 79, 81, 75, 74, 72, 74, 80, 72, 71
 | 73, 80, 81, 82, 79, 81, 75, 74, 72, 74, 80, 72, 71
 | 73, 81, 80, 82, 79, 81, 75, 74, 72, 74, 79, 72, 71
 | 73, 80, 80, 82, 78, 81, 75, 74, 72, 74, 79, 72, 71
 | 73, 80, 80, 82, 78, 81, 75, 74, 72, 74, 79, 72, 71
 | 73, 80, 80, 82, 78, 81, 75, 74, 72, 74, 79, 73, 71
 | 73, 80, 80, 82, 78, 81, 75, 74, 72, 74, 79, 73, 71
 | 73, 80, 80, 82, 78, 81, 75, 74, 72, 74, 79, 73, 71
 | 73, 80, 80, 82, 78, 81, 75, 74, 72, 74, 79, 73, 71
 | 74, 80, 80, 82, 78, 81, 75, 74, 72, 74, 79, 73, 72
 | 73, 80, 80, 82, 78, 81, 75, 74, 72, 74, 79, 73, 72
 | 74, 80, 80, 82, 78, 81, 75, 74, 72, 74, 79, 73, 72
 | 73, 81, 80, 82, 79, 81, 75, 73, 72, 74, 80, 72, 71
 | 73, 81, 81, 82, 79, 81, 75, 74, 72, 74, 80, 72, 71
 | 73, 81, 81, 81, 79, 81, 75, 73, 72, 74, 80, 72, 71
 | 73, 81, 81, 82, 79, 81, 75, 73, 72, 74, 80, 72, 71
 | 74, 80, 80, 82, 78, 81, 75, 74, 72, 74, 79, 73, 72
 | 74, 80, 80, 82, 78, 81, 75, 74, 73, 74, 79, 73, 72
 | 74, 80, 80, 82, 78, 81, 75, 74, 72, 74, 79, 73, 72
 | 74, 80, 80, 82, 78, 81, 75, 74, 72, 74, 79, 73, 72
 | 73, 80, 80, 82, 78, 81, 75, 74, 72, 74, 79, 73, 72
 | 74, 80, 80, 82, 78, 81, 75, 74, 72, 74, 79, 73, 72
 | 73, 80, 80, 82, 78, 81, 75, 74, 72, 74, 79, 73, 71
 | 73, 81, 81, 82, 79, 81, 75, 74, 72, 74, 80, 72, 71
 | 73, 81, 80, 82, 78, 81, 75, 74, 72, 74, 79, 72, 71
 | 73, 81, 80, 82, 78, 81, 75, 74, 72, 74, 79, 72, 71
 | 73, 80, 80, 82, 78, 81, 75, 74, 72, 74, 79, 73, 71
 | 73, 80, 80, 82, 78, 81, 75, 74, 72, 74, 79, 73, 71
 | 73, 80, 80, 82, 78, 81, 75, 74, 72, 74, 79, 73, 72
 | 74, 80, 80, 82, 78, 81, 75, 74, 72, 74, 79, 73, 72
 | 73, 80, 80, 82, 78, 81, 75, 74, 72, 74, 79, 73, 71
 | 73, 80, 81, 82, 79, 80, 75, 74, 72, 74, 80, 72, 71
 | 73, 80, 81, 82, 79, 80, 75, 74, 72, 74, 79, 73, 71
 | 73, 80, 80, 82, 79, 80, 75, 74, 72, 74, 79, 73, 71
 | 73, 80, 81, 82, 79, 80, 75, 74, 72, 74, 79, 73, 71
 | 73, 80, 80, 82, 79, 80, 75, 74, 72, 74, 79, 73, 71
 | 73, 80, 80, 83, 78, 80, 75, 74, 72, 74, 79, 73, 71
 | 73, 80, 80, 82, 78, 80, 75, 74, 72, 74, 79, 73, 72
 | 73, 80, 80, 83, 78, 80, 75, 74, 72, 74, 79, 73, 71
 | 73, 80, 80, 83, 78, 80, 75, 74, 72, 74, 79, 73, 72
 | 74, 80, 80, 82, 78, 80, 75, 74, 73, 74, 79, 73, 72
 | 73, 80, 80, 83, 78, 80, 75, 74, 72, 74, 79, 73, 72
 | 73, 80, 80, 82, 79, 80, 75, 74, 72, 74, 79, 73, 71
 | 73, 80, 80, 83, 78, 80, 75, 74, 72, 74, 79, 73, 71
 | 73, 80, 80, 83, 78, 80, 75, 74, 72, 74, 79, 73, 71
 | 73, 80, 80, 83, 78, 80, 75, 74, 72, 74, 79, 73, 72
 | 73, 80, 80, 83, 78, 80, 75, 74, 72, 74, 79, 73, 72
 | 73, 80, 80, 82, 78, 80, 75, 74, 73, 74, 79, 73, 72
 | 74, 80, 80, 82, 78, 80, 75, 74, 73, 74, 79, 73, 72
 | 73, 80, 80, 83, 78, 80, 75, 74, 72, 74, 79, 73, 71
 | 73, 80, 80, 83, 78, 80, 75, 74, 72, 74, 79, 73, 71
 | 73, 80, 81, 82, 79, 80, 75, 74, 72, 74, 80, 72, 71
 | 73, 80, 81, 82, 79, 80, 75, 74, 72, 74, 79, 73, 71
 | 73, 80, 80, 82, 79, 80, 75, 74, 72, 74, 79, 73, 71
 | 73, 80, 80, 83, 78, 80, 75, 74, 72, 74, 79, 73, 72
 | 73, 80, 80, 83, 78, 80, 75, 74, 72, 74, 79, 73, 72
 | 73, 80, 80, 83, 78, 80, 75, 74, 72, 74, 79, 73, 72
 | 73, 80, 80, 83, 78, 80, 75, 74, 72, 74, 79, 73, 71
 | 73, 80, 80, 83, 78, 80, 75, 74, 72, 74, 79, 73, 71
 | 73, 81, 80, 82, 79, 82, 75, 73, 72, 74, 80, 72, 71
 | 73, 81, 80, 82, 78, 81, 75, 73, 72, 74, 79, 72, 71
 | 73, 81, 80, 83, 78, 81, 75, 73, 72, 74, 79, 73, 71
 | 74, 80, 80, 83, 78, 81, 75, 74, 72, 74, 79, 73, 72
 | 73, 81, 80, 83, 78, 81, 75, 74, 72, 74, 79, 73, 71
 | 73, 81, 80, 83, 78, 81, 75, 74, 72, 74, 79, 73, 71
 | 73, 81, 80, 82, 78, 81, 75, 73, 72, 74, 79, 72, 71
 | 73, 81, 80, 82, 78, 82, 75, 73, 72, 74, 79, 72, 71
 | 73, 81, 80, 82, 78, 82, 75, 73, 72, 74, 79, 72, 71
 | 73, 81, 80, 83, 78, 81, 75, 74, 72, 74, 79, 73, 71
 | 73, 81, 80, 83, 78, 81, 75, 74, 72, 74, 79, 73, 72
 | 73, 81, 80, 83, 78, 81, 75, 74, 72, 74, 79, 73, 71
 | 73, 81, 80, 82, 78, 81, 75, 73, 72, 74, 79, 72, 71
 | 73, 81, 80, 82, 78, 82, 75, 73, 72, 74, 79, 72, 71
 | 73, 81, 80, 82, 78, 82, 75, 73, 72, 74, 79, 72, 71
 | 73, 81, 80, 82, 79, 81, 75, 73, 72, 74, 79, 72, 71
 | 73, 81, 80, 82, 78, 81, 75, 73, 72, 74, 79, 72, 71
 | 73, 81, 80, 83, 78, 81, 75, 74, 72, 74, 79, 73, 71
 | 73, 81, 80, 83, 78, 81, 75, 74, 72, 74, 79, 73, 71
 | 73, 81, 80, 83, 78, 81, 75, 74, 72, 74, 79, 73, 71
 | 73, 81, 80, 82, 78, 82, 75, 73, 72, 74, 79, 72, 71
 | 73, 81, 80, 82, 78, 82, 75, 73, 72, 74, 79, 72, 71
 | 73, 81, 80, 83, 78, 81, 75, 74, 72, 74, 79, 73, 71
 | 73, 81, 80, 82, 78, 82, 75, 73, 72, 74, 79, 72, 71
 | 73, 82, 81, 80, 79, 82, 75, 73, 71, 74, 80, 72, 71
 | 73, 82, 81, 80, 79, 82, 75, 73, 71, 74, 80, 72, 71
 | 73, 82, 81, 80, 78, 82, 75, 73, 71, 74, 80, 72, 71
 | 73, 83, 81, 80, 78, 82, 75, 73, 71, 74, 79, 72, 71
 | 74, 83, 81, 80, 78, 82, 75, 73, 71, 74, 79, 72, 71
 | 74, 83, 80, 79, 78, 81, 75, 74, 72, 74, 79, 72, 71
 | 74, 83, 80, 79, 78, 81, 75, 74, 72, 74, 79, 73, 71
 | 74, 83, 80, 79, 78, 81, 75, 74, 72, 75, 79, 73, 71
 | 74, 83, 80, 79, 78, 81, 75, 74, 72, 75, 79, 73, 71
 | 74, 83, 81, 79, 79, 81, 75, 74, 72, 74, 80, 72, 71
 | 74, 83, 81, 79, 79, 81, 75, 73, 71, 74, 80, 72, 71
 | 73, 83, 81, 80, 79, 82, 75, 73, 71, 74, 80, 72, 71
 | 73, 82, 81, 80, 79, 82, 75, 73, 71, 74, 80, 72, 71
 | 74, 83, 81, 80, 78, 81, 75, 73, 71, 74, 79, 72, 71
 | 74, 83, 80, 79, 78, 81, 75, 74, 72, 75, 79, 73, 71
 | 74, 83, 80, 79, 78, 81, 75, 74, 72, 75, 79, 73, 71
 | 74, 83, 80, 79, 78, 81, 75, 74, 72, 74, 79, 73, 71
 | 74, 83, 80, 79, 78, 81, 75, 74, 72, 74, 79, 73, 71
 | 74, 83, 81, 80, 79, 81, 75, 73, 71, 74, 80, 72, 71
 | 74, 83, 81, 80, 79, 81, 75, 73, 71, 74, 80, 72, 71
 | 74, 83, 80, 78, 78, 80, 76, 74, 72, 75, 79, 73, 71
 | 75, 82, 80, 78, 78, 80, 76, 74, 72, 75, 79, 73, 72
 | 74, 83, 80, 78, 78, 80, 76, 74, 72, 75, 79, 73, 71
 | 74, 83, 80, 79, 79, 81, 76, 74, 72, 75, 79, 73, 71
 | 74, 83, 81, 79, 79, 81, 75, 74, 72, 74, 80, 72, 71
 | 73, 83, 81, 80, 79, 81, 75, 73, 71, 74, 80, 72, 71
 | 74, 83, 80, 78, 78, 80, 76, 74, 72, 75, 79, 73, 71
 | 74, 83, 80, 79, 78, 81, 75, 74, 72, 74, 79, 73, 71
 | 74, 83, 81, 79, 79, 81, 75, 74, 71, 74, 80, 72, 71
 | 74, 83, 81, 79, 79, 81, 75, 74, 72, 74, 80, 72, 71
 | 74, 82, 81, 78, 79, 80, 76, 74, 72, 75, 80, 73, 71
 | 74, 83, 81, 79, 79, 81, 75, 74, 72, 74, 80, 73, 71
 | 73, 82, 80, 81, 78, 82, 75, 73, 72, 74, 79, 72, 71
 | 73, 82, 80, 81, 78, 83, 75, 73, 72, 74, 79, 72, 71
 | 74, 82, 80, 80, 78, 82, 75, 73, 72, 74, 79, 72, 71
 | 74, 82, 80, 80, 78, 82, 75, 74, 72, 74, 79, 73, 71
 | 74, 82, 80, 79, 78, 81, 75, 74, 72, 74, 79, 73, 71
 | 74, 82, 80, 79, 78, 81, 75, 74, 72, 75, 79, 73, 72
 | 75, 82, 79, 78, 78, 80, 76, 74, 72, 75, 79, 73, 72
 | 75, 82, 79, 77, 78, 79, 76, 74, 73, 75, 78, 74, 73
 | 75, 82, 79, 78, 78, 80, 76, 74, 72, 75, 79, 74, 72
 | 75, 82, 79, 78, 78, 80, 76, 74, 72, 75, 79, 73, 72
 | 75, 82, 80, 79, 78, 81, 75, 74, 72, 75, 79, 73, 72
 | 74, 83, 80, 79, 78, 81, 75, 74, 72, 75, 79, 73, 72
 | 74, 82, 80, 79, 78, 81, 75, 74, 72, 74, 79, 73, 71
 | 74, 82, 80, 80, 78, 82, 75, 74, 72, 74, 79, 73, 71
 | 74, 82, 80, 80, 78, 82, 75, 73, 72, 74, 79, 72, 71
 | 74, 82, 80, 81, 78, 82, 75, 73, 72, 74, 79, 72, 71
 | 73, 82, 80, 81, 78, 83, 75, 73, 72, 74, 79, 72, 71
 | 73, 82, 80, 81, 78, 82, 75, 73, 72, 74, 79, 72, 71
 | 73, 82, 80, 81, 78, 83, 75, 73, 72, 74, 79, 72, 71
 | 74, 82, 80, 81, 78, 83, 75, 73, 72, 74, 79, 72, 71
 | 74, 82, 80, 80, 78, 82, 75, 73, 72, 74, 79, 72, 71
 | 74, 82, 80, 80, 78, 82, 75, 73, 72, 74, 79, 73, 71
 | 74, 82, 80, 80, 78, 82, 75, 74, 72, 74, 79, 73, 71
 | 74, 82, 80, 80, 78, 82, 75, 74, 72, 74, 79, 73, 71
 | 74, 82, 80, 80, 78, 82, 75, 74, 72, 74, 79, 73, 71
 | 74, 82, 80, 79, 78, 81, 75, 74, 72, 74, 79, 73, 71
 | 74, 82, 80, 80, 78, 82, 75, 74, 72, 74, 79, 73, 71
 | 74, 82, 80, 80, 78, 82, 75, 74, 72, 74, 79, 73, 71
 | 74, 82, 80, 80, 78, 82, 75, 74, 72, 74, 79, 73, 72
 | 74, 82, 80, 79, 78, 81, 75, 74, 72, 74, 79, 73, 72
 | 74, 83, 80, 79, 78, 81, 75, 74, 72, 74, 79, 73, 72
 | 74, 83, 80, 79, 78, 81, 75, 74, 72, 75, 79, 73, 72
 | 74, 83, 80, 79, 78, 81, 75, 74, 72, 75, 79, 73, 72
 | 74, 83, 80, 79, 78, 81, 75, 74, 72, 74, 79, 73, 72
 | 75, 82, 79, 79, 78, 81, 75, 74, 72, 75, 79, 73, 72
 | 75, 83, 79, 78, 78, 80, 75, 74, 72, 75, 79, 73, 72
 | 75, 83, 79, 78, 78, 80, 75, 74, 72, 75, 78, 73, 72
 | 75, 82, 79, 78, 78, 80, 76, 74, 72, 75, 78, 74, 72
 | 75, 82, 79, 78, 78, 80, 76, 74, 73, 75, 78, 74, 73
 | 75, 82, 79, 78, 78, 80, 76, 74, 72, 75, 78, 74, 72
 | 75, 82, 79, 78, 78, 80, 76, 74, 73, 75, 78, 74, 72
 | 75, 82, 79, 77, 78, 79, 76, 74, 73, 75, 78, 74, 73
 | 76, 82, 79, 77, 77, 79, 76, 75, 73, 75, 78, 74, 73
 | 76, 82, 79, 77, 77, 79, 76, 75, 73, 75, 78, 74, 73
 | 75, 83, 79, 78, 78, 80, 75, 74, 72, 75, 78, 74, 72
 | 75, 83, 79, 78, 78, 80, 75, 74, 72, 75, 78, 73, 72
 | 74, 83, 80, 79, 78, 81, 75, 74, 72, 75, 79, 73, 72
 | 74, 83, 80, 79, 78, 81, 75, 74, 72, 75, 79, 73, 72
 | 74, 82, 80, 80, 78, 82, 75, 74, 72, 74, 79, 73, 71
 | 73, 82, 80, 81, 78, 83, 75, 73, 72, 74, 79, 72, 71
 | 73, 82, 80, 81, 78, 83, 75, 73, 72, 74, 79, 72, 71
 | 74, 82, 80, 81, 78, 83, 75, 73, 72, 74, 79, 72, 71
 | 73, 82, 80, 81, 78, 83, 75, 73, 72, 74, 79, 72, 71
 | 73, 82, 80, 81, 78, 83, 75, 73, 72, 74, 79, 72, 71
 | 74, 82, 80, 80, 78, 82, 75, 73, 72, 74, 79, 73, 71
 | 74, 83, 80, 79, 78, 81, 75, 74, 72, 74, 79, 73, 72
 | 74, 82, 80, 79, 78, 81, 75, 74, 72, 75, 79, 73, 72
 | 75, 82, 80, 79, 78, 81, 75, 74, 72, 75, 79, 73, 72
 | 75, 82, 80, 78, 78, 80, 75, 74, 72, 75, 79, 73, 72
 | 75, 82, 79, 78, 78, 80, 76, 74, 72, 75, 78, 74, 72
 | 75, 82, 79, 78, 78, 80, 76, 74, 72, 75, 79, 73, 72
 | 76, 82, 79, 77, 78, 79, 76, 75, 73, 75, 78, 74, 73
 | 76, 82, 79, 77, 77, 79, 76, 74, 73, 75, 78, 74, 73
 | 73, 82, 80, 82, 78, 82, 75, 73, 72, 74, 79, 72, 71
 | 73, 82, 80, 81, 78, 83, 75, 73, 72, 74, 79, 72, 71
 | 73, 82, 80, 82, 78, 82, 75, 73, 72, 74, 79, 72, 71
 | 74, 82, 80, 81, 78, 83, 75, 73, 72, 74, 79, 72, 71
 | 74, 82, 80, 81, 78, 83, 75, 73, 72, 74, 79, 72, 71
 | 74, 82, 80, 81, 78, 83, 75, 73, 72, 74, 79, 72, 71
 | 74, 82, 80, 81, 78, 83, 75, 73, 72, 74, 79, 72, 71
 | 74, 82, 80, 81, 78, 82, 75, 73, 72, 74, 79, 72, 71
 | 74, 83, 80, 80, 78, 82, 75, 73, 72, 74, 79, 73, 71
 | 74, 83, 80, 80, 78, 82, 75, 73, 72, 74, 79, 73, 71
 | 74, 82, 80, 80, 78, 82, 75, 74, 72, 74, 79, 73, 72
 | 74, 83, 79, 79, 78, 81, 75, 74, 72, 74, 79, 73, 72
 | 75, 82, 79, 79, 78, 81, 75, 74, 72, 75, 78, 73, 72
 | 75, 82, 79, 78, 78, 80, 75, 74, 72, 75, 78, 73, 72
 | 75, 82, 79, 79, 78, 81, 75, 74, 72, 75, 78, 73, 72
 | 74, 83, 79, 79, 78, 81, 75, 74, 72, 75, 78, 73, 72
 | 74, 83, 79, 80, 78, 81, 75, 74, 72, 74, 79, 73, 72
 | 74, 83, 80, 80, 78, 82, 75, 74, 72, 74, 79, 73, 72
 | 74, 82, 80, 81, 78, 82, 75, 73, 72, 74, 79, 73, 71
 | 74, 83, 80, 80, 78, 82, 75, 74, 72, 74, 79, 73, 72
 | 74, 82, 79, 80, 78, 82, 75, 74, 72, 74, 79, 73, 72
 | 74, 82, 79, 80, 78, 82, 75, 74, 72, 74, 79, 73, 72
 | 74, 83, 80, 80, 78, 82, 75, 74, 72, 74, 79, 73, 72
 | 74, 83, 80, 80, 78, 82, 75, 74, 72, 74, 79, 73, 72
 | 74, 83, 79, 80, 78, 81, 75, 74, 72, 74, 78, 73, 72
 | 74, 82, 79, 80, 78, 82, 75, 74, 72, 74, 79, 73, 72
 | 74, 83, 79, 79, 78, 81, 75, 74, 72, 75, 78, 73, 72
 | 75, 82, 79, 79, 78, 81, 75, 74, 72, 75, 78, 73, 72
 | 75, 82, 79, 79, 78, 81, 75, 74, 72, 75, 78, 73, 72
 | 75, 82, 79, 79, 77, 80, 75, 74, 72, 75, 78, 73, 72
 | 75, 82, 79, 79, 78, 81, 75, 74, 72, 75, 78, 73, 72
 | 74, 83, 79, 79, 78, 81, 75, 74, 72, 75, 78, 73, 72
 | 74, 82, 79, 80, 78, 81, 75, 74, 72, 74, 78, 73, 72
 | 74, 82, 80, 80, 78, 82, 75, 74, 72, 74, 79, 73, 72
 | 74, 83, 80, 80, 78, 82, 75, 74, 72, 74, 79, 73, 71
 | 75, 82, 79, 79, 77, 81, 75, 74, 72, 75, 78, 73, 72
 | 75, 82, 79, 78, 77, 80, 75, 74, 73, 75, 78, 74, 72
 | 75, 82, 79, 78, 77, 80, 75, 74, 72, 75, 78, 74, 72
 | 75, 82, 79, 79, 77, 80, 75, 74, 72, 75, 78, 74, 72
 | 75, 82, 79, 79, 77, 81, 75, 74, 72, 75, 78, 73, 72
 | 75, 82, 79, 79, 77, 81, 75, 74, 72, 75, 78, 73, 72
 | 75, 82, 79, 79, 78, 81, 75, 74, 72, 75, 78, 73, 72
 | 74, 82, 79, 80, 78, 81, 75, 74, 72, 74, 78, 73, 72
 | 74, 82, 79, 80, 78, 82, 75, 74, 72, 74, 78, 73, 72
 | 74, 82, 80, 81, 78, 82, 75, 74, 72, 74, 79, 73, 72
 | 74, 83, 79, 80, 78, 82, 75, 74, 72, 74, 79, 73, 72
 | 74, 82, 79, 80, 78, 82, 75, 74, 72, 74, 78, 73, 72
 | 74, 82, 79, 80, 78, 82, 75, 74, 72, 74, 78, 73, 72
 | 74, 82, 79, 80, 78, 81, 75, 74, 72, 74, 78, 73, 72
 | 74, 82, 79, 80, 77, 81, 75, 74, 72, 74, 78, 73, 72
 | 75, 82, 79, 79, 77, 81, 75, 74, 72, 75, 78, 73, 72
 | 75, 82, 79, 79, 77, 81, 75, 74, 72, 75, 78, 73, 72
 | 75, 82, 79, 80, 77, 81, 75, 74, 72, 75, 78, 73, 72
 | 74, 82, 79, 80, 78, 81, 75, 74, 72, 74, 78, 73, 72
 | 74, 82, 79, 80, 78, 82, 75, 74, 72, 74, 78, 73, 72 |];
 P=[9, 9, 9, 9, 9, 9, 9, 13, 13, 1, 1, 1, 1, 1, 1, 1, 1, 1, 9, 9, 9, 9, 9, 9, 9, 9, 9, 13, 13, 13, 1, 1, 1, 1, 1, 1, 1, 1, 1, 1, 1, 1, 1, 9, 9, 9, 9, 9, 9, 9, 9, 9, 9, 9, 13, 13, 13, 13, 13, 1, 1, 1, 1, 1, 1, 1, 1, 1, 1, 1, 1, 1, 1, 1, 1, 1, 1, 1, 13, 13, 13, 13, 9, 9, 1, 1, 1, 9, 9, 9, 9, 9, 9, 9, 9, 9, 9, 9, 1, 1, 1, 1, 1, 1, 1, 1, 1, 1, 12, 12, 12, 12, 12, 12, 12, 12, 12, 12, 12, 12, 12, 12, 12, 12, 12, 12, 12, 12, 12, 12, 12, 12, 8, 8, 8, 8, 8, 10, 10, 8, 8, 8, 8, 8, 8, 8, 8, 8, 8, 10, 10, 8, 8, 8, 8, 8, 8, 8, 8, 7, 7, 7, 7, 7, 7, 7, 7, 7, 7, 7, 7, 7, 7, 7, 7, 7, 7, 7, 7, 7, 7, 7, 7, 7, 7, 7, 7, 7, 7, 7, 7, 7, 7, 7, 7, 7, 7, 7, 7, 7, 7, 7, 7, 7, 7, 7, 7, 7, 7, 7, 7, 7, 7, 7, 7, 7, 7, 7, 7, 7, 7, 7, 7, 7, 7, 7, 7, 7, 7, 7, 7, 7, 5, 5, 5, 5, 5, 5, 5, 5, 5, 5, 5, 5, 5, 5, 5, 5, 5, 5, 5, 5, 5, 5, 5, 5, 5, 5, 5, 5, 5, 5, 5, 5, 3, 3, 3, 3, 3, 3, 3, 3, 11, 3, 3, 3, 3, 3, 3, 11, 5, 3, 3, 3, 3, 3, 3, 3, 3, 3, 3, 3, 3, 3, 3, 3, 3, 3, 3, 3, 3, 3, 3, 3, 3, 3, 3, 3, 3, 3, 3, 3, 3, 3, 3, 3, 3, 3, 3, 3, 3, 3, 3, 3, 3, 3, 3, 3, 3, 3, 3, 3, 3, 3, 3, 3, 3, 3, 3, 3, 3, 3, 3, 3, 3, 3, 4, 4, 4, 4, 4, 4, 4, 4, 4, 4, 4, 4, 4, 4, 4, 4, 4, 4, 4, 4, 4, 4, 4, 4, 4, 4, 4, 4, 4, 4, 4, 4, 4, 4, 4, 4, 4, 4, 4, 4, 4, 4, 4, 4, 4, 4, 4, 4, 4, 4, 4, 4, 4, 4, 4, 4, 4, 4, 4, 4, 4, 4, 4, 4, 4, 4, 4, 4, 4, 4, 4, 4, 4, 4, 4, 4, 4, 4, 4, 4, 4, 4, 4, 4, 4, 4, 4, 4, 4, 4, 4, 4, 2, 2, 2, 2, 2, 2, 2, 2, 2, 2, 2, 2, 2, 2, 2, 2, 2, 2, 2, 2, 2, 2, 2, 2, 2, 2, 2, 2, 2, 2, 2, 2, 6, 6, 6, 2, 2, 2, 2, 2, 2, 2, 2, 2, 2, 2, 6, 6, 6, 6, 6, 6, 6, 6, 2, 2, 2, 2, 2, 2, 2, 2, 2, 2, 2, 2, 2, 2, 2, 2, 2, 2, 2, 2, 2, 2, 2, 2, 2, 2, 2, 6, 6, 6, 6, 6, 6, 2, 2, 2, 2, 2, 2, 2, 2, 6, 6, 6, 6, 6, 6, 6, 6, 6, 2, 2, 2, 2, 2, 2, 2, 2, 2, 6, 2, 2, 2, 2, 2, 2, 2, 2, 2, 2, 2, 2, 2, 2, 2, 2, 2, 2, 2, 2, 2, 2, 2, 2, 2, 6, 2, 2, 2, 2, 2, 2, 2, 2, 2, 2 ];